NAME : portcgen-21-25
COMMENT : portcgen N=21, seed=25
TYPE : TSP
DIMENSION : 21
EDGE_WEIGHT_TYPE : EUC_2D
NODE_COORD_SECTION
1 -188144 403598
2 -296027 -347340
3 -26131 -306925
4 -216289 10315
5 74537 -8346
6 -17518 116193
7 -147325 -210769
8 116736 -99796
9 273555 204560
10 62090 -98542
11 698364 40617
12 -369480 -367375
13 84703 114714
14 21298 -118237
15 -233613 -177353
16 130930 237236
17 47391 -256238
18 2581 -130609
19 -81886 -61565
20 58779 -22351
21 -48460 -245587
